r = [
0,11,8,4,5,16,11,1,18,8,8,0
];
p = [
0,27,12,29,20,12,30,6,21,28,9,0
];
e = [
0,12,9,15,20,8,11,4,14,11,7,0
];
d = [
0,190,183,181,179,185,187,166,197,173,179,199
];
d_bar = [
0,193,184,184,181,186,190,167,199,176,180,199
];
w = [
0,4,9,5,10,8,3.666666667,4,7,3.666666667,7,0
];
